NAME : instance_7_900
TYPE : TSP
DIMENSION : 7
EDGE_WEIGHT_TYPE : EUC_2D
LOWER : 0
UPPER : 100
NODE_COORD_SECTION
1 14.2957306467 4.4068483869
2 63.6474772822 15.9493079875
3 41.2269865628 24.1197180701
4 47.9384938488 72.630382143
5 19.5805573603 19.5021858206
6 62.9812135361 91.8366180966
7 95.318815182 83.48483257
EOF
